NAME: GRASP_43_1
TYPE: TSP
COMMENT: line_43_1
DIMENSION: 43
EDGE_WEIGHT_TYPE: EUC_2D
NODE_COORD_SECTION
1 638 4187
2 3954 2501
3 2026 415
4 2132 4657
5 2667 4642
6 2103 3506
7 1470 302
8 2814 511
9 3347 2826
10 2355 1422
11 624 4844
12 2212 4189
13 1691 4449
14 4418 1342
15 1281 3906
16 3398 900
17 3547 1043
18 3620 2507
19 3853 3625
20 1791 1412
21 3222 834
22 3824 2376
23 2216 3106
24 2611 2838
25 2039 2840
26 4414 4270
27 3736 3096
28 1442 2989
29 2037 2484
30 591 3139
31 1981 2499
32 2401 2208
33 4376 1315
34 2230 3441
35 4736 2746
36 1532 4262
37 2283 3661
38 2156 2658
39 874 720
40 4442 4118
41 1785 4031
42 46 3012
43 3121 203
